# Solution for model GasLib-40
# Objective value = 8.3738044072127110e+01
loadshed[innode_1] 0
loadshed[innode_2] 0
loadshed[innode_3] 0
loadshed[innode_4] 0
loadshed[innode_5] 0
loadshed[innode_6] 0
loadshed[innode_7] 0
loadshed[innode_8] 0
loadshed[source_1] -2.7681801379215942e-02
loadshed[source_2] 2.7959928252532074e-01
loadshed[source_3] 0.277767489044355
loadshed[sink_1] 1
loadshed[sink_2] 0
loadshed[sink_3] 0
loadshed[sink_4] 0
loadshed[sink_5] 0
loadshed[sink_6] 0
loadshed[sink_7] 0
loadshed[sink_8] 0
loadshed[sink_9] 1
loadshed[sink_10] 0
loadshed[sink_11] 0
loadshed[sink_12] 1
loadshed[sink_13] 0
loadshed[sink_14] 0
loadshed[sink_15] 0
loadshed[sink_16] 0
loadshed[sink_17] 0
loadshed[sink_18] 1.0428431336904463e-02
loadshed[sink_19] 0
loadshed[sink_20] 0
loadshed[sink_21] 1
loadshed[sink_22] 1.6678440683537551e-01
loadshed[sink_23] 0
loadshed[sink_24] 9.4307520700237146e-01
loadshed[sink_25] 0
loadshed[sink_26] 0
loadshed[sink_27] 0
loadshed[sink_28] 0
loadshed[sink_29] 0
flow[source_1,sink_3] 1.6246650144720729e+02
flow[innode_1,sink_16] 1.6354166666666970e+01
flow[innode_6,sink_13] 3.0122838954775943e-01
flow[sink_13,sink_14] -1.6052938277118908e+01
flow[sink_14,sink_10] -3.2407104943785576e+01
flow[sink_25,sink_26] 1.6354166666666970e+01
flow[sink_26,sink_9] 0
flow[sink_9,sink_18] 0
flow[sink_26,sink_4] 0
flow[sink_4,sink_20] -6.3244449001140993e+01
flow[sink_18,sink_6] -1.6183618362509680e+01
flow[sink_25,innode_8] -1.2975816811387091e+02
flow[sink_6,sink_7] -4.6164331709056171e+01
flow[sink_6,sink_22] 1.3626546679879798e+01
flow[sink_7,sink_24] 9.3095755214871878e-01
flow[sink_22,sink_1] 0
flow[sink_24,sink_21] 0
flow[sink_21,sink_12] 0
flow[sink_7,sink_5] -6.3449455927871540e+01
flow[sink_5,sink_17] -7.9803622594538211e+01
flow[sink_17,sink_4] -4.6890282334474321e+01
flow[sink_17,sink_8] -4.9267506926730533e+01
flow[sink_3,sink_23] 16.3541666666697
flow[sink_8,sink_20] -65.6216735933972
flow[sink_25,sink_20] 1.4522028926120490e+02
flow[sink_25,sink_15] -4.8471682870214579e+01
flow[sink_15,sink_29] 0
flow[sink_29,sink_28] 1.6354166666667879e+01
flow[sink_29,sink_2] 8.1180016203547922e+01
flow[sink_2,sink_15] 6.4825849536881250e+01
flow[sink_29,innode_7] -1.1388834953688246e+02
flow[innode_4,sink_19] 4.4051902121619392e+01
flow[sink_19,innode_3] 39.756823329552
flow[innode_4,innode_5] 7.0126036155500458e+01
flow[sink_27,innode_5] -7.0126036155500458e+01
flow[sink_27,sink_19] 5.3771869488833786e+01
flow[sink_10,sink_11] 3.2708333333333641e+01
flow[sink_10,innode_2] -4.1712781614233883e+01
flow[sink_10,innode_3] -39.756823329552
flow[innode_6,sink_25] -3.0122838954775943e-01
flow[sink_11,innode_1] 1.6354166666666970e+01
flow[sink_19,innode_2] 4.1712781614233883e+01
flow[source_3,innode_4] 1.1417793827711985e+02
flow[source_2,innode_7] 1.1388834953688246e+02
flow[sink_3,innode_8] 1.2975816811387091e+02
pressure[innode_1] 7.6872201104820618e+01
pressure[innode_2] 7.9228595200166851e+01
pressure[innode_3] 7.9140558216875419e+01
pressure[innode_4] 81.01325
pressure[innode_5] 8.0965013614574914e+01
pressure[innode_6] 7.5464024374206616e+01
pressure[innode_7] 81.01325
pressure[innode_8] 8.0470186550115130e+01
pressure[source_1] 81.01325
pressure[source_2] 81.01325
pressure[source_3] 81.01325
pressure[sink_1] 1.0132500000000002e+00
pressure[sink_2] 7.5910801379344107e+01
pressure[sink_3] 8.0470186550115130e+01
pressure[sink_4] 36.2040445964577
pressure[sink_5] 2.8467259575419753e+01
pressure[sink_6] 1.4454007952431329e+00
pressure[sink_7] 2.0791270304962435e+00
pressure[sink_8] 3.6271043651741827e+01
pressure[sink_9] 1.0132500000000002e+00
pressure[sink_10] 7.7023902412424164e+01
pressure[sink_11] 7.6872201104820618e+01
pressure[sink_12] 1.01325
pressure[sink_13] 7.5462363752434982e+01
pressure[sink_14] 7.5491091852889866e+01
pressure[sink_15] 7.5699159267993309e+01
pressure[sink_16] 7.5850551270002939e+01
pressure[sink_17] 34.4120526215607
pressure[sink_18] 1.0132499999999509e+00
pressure[sink_19] 7.9228595200166851e+01
pressure[sink_20] 4.0843951445819663e+01
pressure[sink_21] 1.01325
pressure[sink_22] 1.0132500000000002e+00
pressure[sink_23] 8.0305468538455344e+01
pressure[sink_24] 1.01325
pressure[sink_25] 7.5464024374206616e+01
pressure[sink_26] 7.4312210020142729e+01
pressure[sink_27] 8.0383097093466219e+01
pressure[sink_28] 7.7671900533367932e+01
pressure[sink_29] 7.7967182806985107e+01
interdiction[source_1,sink_3] 0
interdiction[innode_1,sink_16] 0
interdiction[innode_6,sink_13] 0
interdiction[sink_13,sink_14] 0
interdiction[sink_14,sink_10] 0
interdiction[sink_25,sink_26] 0
interdiction[sink_26,sink_9] 1
interdiction[sink_9,sink_18] 0
interdiction[sink_26,sink_4] 1
interdiction[sink_4,sink_20] 0
interdiction[sink_18,sink_6] 0
interdiction[sink_25,innode_8] 0
interdiction[sink_6,sink_7] 0
interdiction[sink_6,sink_22] 0
interdiction[sink_7,sink_24] 0
interdiction[sink_22,sink_1] 0
interdiction[sink_24,sink_21] 0
interdiction[sink_21,sink_12] 0
interdiction[sink_7,sink_5] 0
interdiction[sink_5,sink_17] 0
interdiction[sink_17,sink_4] 0
interdiction[sink_17,sink_8] 0
interdiction[sink_3,sink_23] 0
interdiction[sink_8,sink_20] 0
interdiction[sink_25,sink_20] 0
interdiction[sink_25,sink_15] 0
interdiction[sink_15,sink_29] 1
interdiction[sink_29,sink_28] 0
interdiction[sink_29,sink_2] 0
interdiction[sink_2,sink_15] 0
interdiction[sink_29,innode_7] 0
interdiction[innode_4,sink_19] 0
interdiction[sink_19,innode_3] 0
interdiction[innode_4,innode_5] 0
interdiction[sink_27,innode_5] 0
interdiction[sink_27,sink_19] 0
interdiction[sink_10,sink_11] 0
interdiction[sink_10,innode_2] 0
interdiction[sink_10,innode_3] 0
interdiction[innode_6,sink_25] 0
interdiction[sink_11,innode_1] 0
interdiction[sink_19,innode_2] 0
interdiction[source_3,innode_4] 0
interdiction[source_2,innode_7] 0
interdiction[sink_3,innode_8] 0
WCcheckFlow[source_1,sink_3] 39
WCcheckFlow[innode_1,sink_16] 1
WCcheckFlow[innode_6,sink_13] 13
WCcheckFlow[sink_13,sink_14] 12
WCcheckFlow[sink_14,sink_10] 11
WCcheckFlow[sink_25,sink_26] 1
WCcheckFlow[sink_26,sink_9] 0
WCcheckFlow[sink_9,sink_18] -1
WCcheckFlow[sink_26,sink_4] 0
WCcheckFlow[sink_4,sink_20] -13
WCcheckFlow[sink_18,sink_6] -2
WCcheckFlow[sink_25,innode_8] -36
WCcheckFlow[sink_6,sink_7] -5
WCcheckFlow[sink_6,sink_22] 2
WCcheckFlow[sink_7,sink_24] 3
WCcheckFlow[sink_22,sink_1] 1
WCcheckFlow[sink_24,sink_21] 2
WCcheckFlow[sink_21,sink_12] 1
WCcheckFlow[sink_7,sink_5] -9
WCcheckFlow[sink_5,sink_17] -10
WCcheckFlow[sink_17,sink_4] -12
WCcheckFlow[sink_17,sink_8] 1
WCcheckFlow[sink_3,sink_23] 1
WCcheckFlow[sink_8,sink_20] 0
WCcheckFlow[sink_25,sink_20] 14
WCcheckFlow[sink_25,sink_15] 6
WCcheckFlow[sink_15,sink_29] 0
WCcheckFlow[sink_29,sink_28] 1
WCcheckFlow[sink_29,sink_2] -4
WCcheckFlow[sink_2,sink_15] -5
WCcheckFlow[sink_29,innode_7] 2
WCcheckFlow[innode_4,sink_19] -4
WCcheckFlow[sink_19,innode_3] -5
WCcheckFlow[innode_4,innode_5] 2
WCcheckFlow[sink_27,innode_5] -1
WCcheckFlow[sink_27,sink_19] 0
WCcheckFlow[sink_10,sink_11] 3
WCcheckFlow[sink_10,innode_2] 1
WCcheckFlow[sink_10,innode_3] 6
WCcheckFlow[innode_6,sink_25] -14
WCcheckFlow[sink_11,innode_1] 2
WCcheckFlow[sink_19,innode_2] 0
WCcheckFlow[source_3,innode_4] -1
WCcheckFlow[source_2,innode_7] -1
WCcheckFlow[sink_3,innode_8] 37
